db/data/1675570653607900619171146962637425.z3.out
-------------------
2500.206381331
